'hugeuniform118'
150 100 100
149
148
147
146
143
141
140
139
137
136
132
132
131
130
130
129
127
126
125
125
124
121
120
119
117
117
115
115
114
114
114
113
111
109
108
107
104
103
100
98
98
97
95
93
92
92
91
91
89
86
86
85
81
78
74
68
67
67
63
63
63
62
61
61
50
50
49
48
46
46
43
43
40
39
39
38
37
35
32
32
30
29
28
28
23
20
19
14
13
11
10
8
8
7
6
5
5
4
2
0
